benchmarks/bfuzz0/96941271618614154261737530792258933956.smt2
(set-logic QF_FP)
(declare-const x0 (_ FloatingPoint 8 24))
(declare-const x1 (_ FloatingPoint 8 24))
(declare-const x2 (_ FloatingPoint 8 24))
(declare-const x3 (_ FloatingPoint 8 24))
(declare-const x4 (_ FloatingPoint 8 24))
(declare-const x5 (_ FloatingPoint 8 24))
(declare-const x6 (_ FloatingPoint 8 24))
(declare-const x7 (_ FloatingPoint 8 24))
(declare-const x8 (_ FloatingPoint 8 24))
(declare-const x9 (_ FloatingPoint 8 24))
(declare-const x10 (_ FloatingPoint 8 24))
(declare-const x11 (_ FloatingPoint 8 24))
(declare-const x12 (_ FloatingPoint 8 24))
(declare-const x13 (_ FloatingPoint 8 24))
(declare-const x14 (_ FloatingPoint 8 24))
(declare-const x15 (_ FloatingPoint 8 24))
(declare-const x16 (_ FloatingPoint 8 24))
(declare-const x17 (_ FloatingPoint 8 24))
(declare-const x18 (_ FloatingPoint 8 24))
(declare-const x19 (_ FloatingPoint 8 24))
(declare-const x20 (_ FloatingPoint 8 24))
(declare-const x21 (_ FloatingPoint 8 24))
(declare-const x22 (_ FloatingPoint 8 24))
(assert (fp.eq (fp.div RNE x22 x6) (fp.neg x8)))
(assert (fp.eq (fp.sub RNE x14 x14) (fp.div RNE x15 x11)))
(assert (fp.lt (fp.add RNE x6 x21) (fp.mul RNE x21 x19)))
(assert (fp.eq (fp.mul RNE x17 x5) (fp.sub RNE x7 x18)))
(assert (fp.leq (fp.mul RNE x9 x16) (fp.neg x11)))
(assert (fp.lt (fp.mul RNE x9 x13) (fp.neg x6)))
(assert (fp.gt (fp.div RNE x7 x12) (fp.mul RNE x22 x13)))
(assert (fp.geq (fp.mul RNE x15 x0) (fp.div RNE x12 x1)))
(assert (fp.leq (fp.sub RNE x7 x20) (fp.div RNE x2 x18)))
(assert (fp.lt (fp.neg x1) (fp.div RNE x13 x14)))
(assert (fp.eq (fp.sub RNE x2 x17) (fp.neg x12)))
(assert (fp.gt (fp.sub RNE x3 x3) (fp.add RNE x0 x15)))
(assert (fp.lt (fp.neg x20) (fp.mul RNE x7 x22)))
(assert (fp.eq (fp.add RNE x9 x0) (fp.mul RNE x18 x4)))
(assert (fp.geq (fp.mul RNE x21 x6) (fp.add RNE x15 x9)))
(assert (fp.geq (fp.neg x8) (fp.neg x6)))
(assert (fp.leq (fp.neg x16) (fp.div RNE x2 x3)))
(check-sat)
