db/data/96941271618614154261737530792258933956.z3.out
sat
-------------------
570.797906103
